(declare-const delta_j Int)
(declare-const delta_m Int)
(declare-const delta_x Int)
(declare-const delta_y Int)
(assert (exists
         ((|m'?1| Int) (|j'?2| Int) (|y'?3| Int) (|x'?4| Int) (phi_m?5 Int)
            (havoc?6 Int) (phi_y?7 Int) (phi_x?8 Int) (i?9 Int) (m?10 Int)
            (n?11 Int) (j?12 Int) (x?13 Int) (y?14 Int))
         (and (<= (- m?10) 0) (<= (- j?12) 0) (< (+ (- n?11) j?12) 0)
                (or (and (= (+ (- i?9) j?12) 0) (= (+ (- phi_x?8) x?13 1) 0)
                           (= (+ (- phi_y?7) y?14 -1) 0))
                      (and (or (< (+ (- i?9) j?12) 0) (< 0 (+ (- i?9) j?12)))
                             (= (+ (- phi_x?8) x?13 -1) 0)
                             (= (+ (- phi_y?7) y?14 1) 0)))
                (or (and (or (< havoc?6 0) (< 0 havoc?6))
                           (= (+ (- phi_m?5) j?12) 0))
                      (and (= havoc?6 0) (= (+ (- phi_m?5) m?10) 0)))
                (= (+ |m'?1| (- phi_m?5)) 0) (= (+ |j'?2| (- j?12) -1) 0)
                (= (+ |y'?3| (- phi_y?7)) 0) (= (+ |x'?4| (- phi_x?8)) 0)
                (= delta_x (+ |x'?4| (- x?13)))
                (= delta_y (+ |y'?3| (- y?14)))
                (= delta_j (+ |j'?2| (- j?12)))
                (= delta_m (+ |m'?1| (- m?10))))))
(check-sat)
